N = 50;
MinK = 8;
Capacity = 200;

Scale = 10;
DistanceRoundingMode = Floor;
X = array1d(0..N, [40, 25, 22, 22, 20, 20, 18, 15, 15, 10, 10, 8, 8, 5, 5, 2, 0, 0, 44, 42, 42, 40, 40, 38, 38, 35, 95, 95, 92, 90, 88, 88, 87, 85, 85, 67, 65, 65, 62, 60, 60, 58, 55, 55, 55, 20, 18, 2, 42, 42, 72]);
Y = array1d(0..N, [50, 85, 75, 85, 80, 85, 75, 75, 80, 35, 40, 40, 45, 35, 45, 40, 40, 45, 5, 10, 15, 5, 15, 5, 15, 5, 30, 35, 30, 35, 30, 35, 30, 25, 35, 85, 85, 82, 80, 80, 85, 75, 80, 85, 82, 82, 80, 45, 5, 12, 35]);

Demands = array1d(1..N, [20, 30, 10, 40, 20, 20, 20, 10, 20, 30, 40, 20, 10, 10, 20, 20, 20, 20, 40, 10, 10, 40, 30, 10, 20, 30, 20, 10, 10, 10, 20, 10, 10, 30, 20, 40, 10, 30, 10, 30, 20, 10, 20, 10, 10, 10, 10, 10, 10, 30]);

ServiceTimes = array1d(1..N, [10, 10, 10, 10, 10, 10, 10, 10, 10, 10, 10, 10, 10, 10, 10, 10, 10, 10, 10, 10, 10, 10, 10, 10, 10, 10, 10, 10, 10, 10, 10, 10, 10, 10, 10, 10, 10, 10, 10, 10, 10, 10, 10, 10, 10, 10, 10, 10, 10, 10]);

TimeWindows = array2d(1..2, 0..N, [|
    0,  71,  30,  64, 151,  40,  96,  35, 101, 101, 123, 69,  32, 152,  35, 68,  59, 147,  79,  58, 111,  45,  94, 75, 128, 171,  58, 60,  55,  52,  75,  50, 116, 51,  62, 138, 43,  69, 85, 36,  87,  92, 33, 117, 74, 37,  98,  38,  64, 109,  71 |
  240, 191, 150, 184, 161, 160, 123, 155, 111, 111, 144, 79, 152, 162, 117, 78, 114, 180, 124, 115, 162, 165, 119, 85, 194, 181, 171, 93, 120, 112, 102, 170, 175, 85, 182, 169, 78, 189, 95, 74, 112, 121, 66, 168, 84, 72, 157, 109, 184, 128, 191
|]);
